Version identifier: 22.1.0.0 | 2022-03-09 | 1a383f8ce
CPXPARAM_Threads                                 1
CPXPARAM_MIP_Strategy_VariableSelect             3
CPXPARAM_TimeLimit                               599.99340529200003
Tried aggregator 1 time.
MIP Presolve eliminated 12 rows and 0 columns.
MIP Presolve modified 4 coefficients.
Reduced MIP has 1513 rows, 7500 columns, and 84170 nonzeros.
Reduced MIP has 7500 binaries, 0 generals, 0 SOSs, and 0 indicators.
Presolve time = 0.05 sec. (35.39 ticks)
Probing time = 0.01 sec. (7.72 ticks)
Tried aggregator 1 time.
Detecting symmetries...
Reduced MIP has 1513 rows, 7500 columns, and 84170 nonzeros.
Reduced MIP has 7500 binaries, 0 generals, 0 SOSs, and 0 indicators.
Presolve time = 0.06 sec. (44.50 ticks)
Probing time = 0.01 sec. (7.72 ticks)
Clique table members: 303.
MIP emphasis: balance optimality and feasibility.
MIP search method: dynamic search.
Parallel mode: none, using 1 thread.
Root relaxation solution time = 0.41 sec. (432.79 ticks)

        Nodes                                         Cuts/
   Node  Left     Objective  IInf  Best Integer    Best Bound    ItCnt     Gap

      0     0        0.0000   872                      0.0000     2372         
*     0+    0                            0.0000        0.0000             0.00%
      0     0        cutoff              0.0000        0.0000     2372    0.00%
Elapsed time = 2.56 sec. (2593.00 ticks, tree = 0.01 MB, solutions = 1)

Root node processing (before b&c):
  Real time             =    2.56 sec. (2593.22 ticks)
Sequential b&c:
  Real time             =    0.00 sec. (0.00 ticks)
                          ------------
Total (root+branch&cut) =    2.56 sec. (2593.22 ticks)
Primal:	300
Dual:	300
Status:	Optimal
Time:	2.60806
Sequence:
	20
	13
	21
	9
	12
	20
	2
	16
	21
	13
	11
	10
	21
	14
	9
	6
	21
	22
	16
	13
	6
	15
	23
	16
	6
	22
	16
	13
	5
	2
	14
	10
	13
	15
	24
	16
	6
	17
	13
	12
	22
	24
	15
	13
	16
	24
	11
	14
	7
	17
	24
	24
	16
	1
	21
	20
	10
	3
	23
	21
	10
	11
	19
	13
	16
	11
	13
	17
	10
	21
	10
	18
	12
	20
	19
	11
	13
	16
	9
	16
	23
	9
	14
	24
	14
	2
	13
	21
	23
	17
	13
	11
	16
	13
	14
	11
	24
	16
	14
	2
	10
	21
	6
	17
	6
	20
	3
	24
	14
	13
	2
	21
	23
	21
	11
	13
	16
	22
	21
	24
	14
	11
	6
	16
	14
	2
	23
	10
	21
	17
	13
	20
	9
	5
	16
	13
	22
	24
	19
	12
	22
	6
	16
	24
	17
	10
	13
	19
	11
	16
	13
	10
	8
	7
	5
	24
	11
	14
	13
	8
	23
	7
	21
	22
	19
	24
	0
	8
	24
	16
	10
	2
	14
	23
	15
	23
	10
	21
	11
	14
	24
	11
	21
	16
	9
	24
	10
	14
	15
	13
	24
	13
	15
	16
	23
	6
	22
	21
	14
	7
	1
	10
	21
	16
	9
	10
	13
	16
	17
	24
	24
	10
	15
	16
	7
	6
	11
	4
	19
	13
	9
	14
	7
	14
	11
	13
	19
	10
	8
	2
	24
	14
	13
	8
	6
	10
	15
	20
	12
	13
	11
	19
	13
	14
	9
	23
	12
	2
	16
	13
	10
	8
	13
	21
	6
	11
	21
	16
	11
	19
	16
	10
	2
	16
	19
	23
	11
	21
	16
	13
	9
	14
	16
	6
	2
	24
	14
	16
	9
	6
	9
	16
	19
	13
	11
	13
	19
	14
	9
	20
	19
	12
	1
	13
	13
	12
	15
	10
	20
	6
